7
+1		+2		-2		+3		+4		-4		+5		+6		+7		-3		-5		-1		-7		-6
202		225		0		0		0		258		395		409		432		471		0		0		0		0		
236		252		1440	1440	1440	287		421		426		458		499		1440	1440	1440	1440		
10		10		12		14		13		13		11		13		14		12		14		14		15		11		16